max: 100x12 + 100x13 - 10y1 - 20y2;
0 <= x12;
0 <= x13;
0 <= x23;
0 <= x24;
0 <= x34;

x12 = x23 + x24;
x13 + x23 = x34;

x12 + 2x13 + x23 + 2x24+ 3x34 <= 4y1 + 5y2;
x12 + 2x13 + 2x23 + x24+ 4x34 <= 2y1 + 2y2;
5x12 + 0x13 + 0x23 + 0x24+ 6x34 <= 0y1 + 1y2;
		
y1 >= 0;
y2 >= 0;
